============================[ Problem Statistics ]=============================|                                                                             ||  Number of variables:          4242                                         ||  Number of clauses:           10074                                         ||  Parse time:                   0.47 s                                       ||                                                                             |============================[ Search Statistics ]==============================| Conflicts |          ORIGINAL         |          LEARNT          | Progress ||           |    Vars  Clauses Literals |    Limit  Clauses Lit/Cl |          |===============================================================================|       100 |    1591     6279   737290 |     2302      100     53 | 62.501 % ||       250 |    1591     6279   737290 |     2532      250     75 | 62.495 % |===============================================================================restarts              : 3conflicts             : 261            (372 /sec)decisions             : 525            (0.00 % random) (748 /sec)propagations          : 11774          (16772 /sec)conflict literals     : 19931          (94.86 % deleted)CPU time              : 0.702 sSATISFIABLE